outputs/models/Extended_LCD_ILP_2_17_4_7.lp
\ Model Extended ILP
\ LP format - for model browsing. Use MPS format to capture full model detail.
\ Signature: 0x1c8267029a927e04
Maximize
  A[0] + A[1] + A[2] + A[3] + A[4] + A[5] + A[6] + A[7] + A[8] + A[9]
   + A[10] + A[11] + A[12] + A[13]
Subject To
 R0: 9 A[0] + 7 A[1] + 5 A[2] + 3 A[3] + A[4] - A[5] - 3 A[6] - 5 A[7]
   - 7 A[8] - 9 A[9] - 11 A[10] - 13 A[11] - 15 A[12] - 17 A[13] = 0
 R1: 32 A[0] + 16 A[1] + 4 A[2] - 4 A[3] - 8 A[4] - 8 A[5] - 4 A[6]
   + 4 A[7] + 16 A[8] + 32 A[9] + 52 A[10] + 76 A[11] + 104 A[12]
   + 136 A[13] = 0
 R2: 48 A[0] - 20 A[2] - 20 A[3] - 8 A[4] + 8 A[5] + 20 A[6] + 20 A[7]
   - 48 A[9] - 132 A[10] - 260 A[11] - 440 A[12] - 680 A[13] = 0
 R3: - 12 A[0] - 60 A[1] - 40 A[2] + 28 A[4] + 28 A[5] - 40 A[7] - 60 A[8]
   - 12 A[9] + 168 A[10] + 560 A[11] + 1260 A[12] + 2380 A[13] = 0
 R4: - 156 A[0] - 84 A[1] + 16 A[2] + 56 A[3] + 28 A[4] - 28 A[5] - 56 A[6]
   - 16 A[7] + 84 A[8] + 156 A[9] - 728 A[11] - 2548 A[12] - 6188 A[13]
   = 0
 R5: - 208 A[0] + 32 A[1] + 100 A[2] + 28 A[3] - 56 A[4] - 56 A[5]
   + 28 A[6] + 100 A[7] + 32 A[8] - 208 A[9] - 364 A[10] + 364 A[11]
   + 3640 A[12] + 12376 A[13] >= -12376
 R6: 176 A[1] + 44 A[2] - 84 A[3] - 56 A[4] + 56 A[5] + 84 A[6] - 44 A[7]
   - 176 A[8] + 572 A[10] + 572 A[11] - 3432 A[12] - 19448 A[13] >= -19448
 R7: 286 A[0] + 110 A[1] - 110 A[2] - 70 A[3] + 70 A[4] + 70 A[5] - 70 A[6]
   - 110 A[7] + 110 A[8] + 286 A[9] - 286 A[10] - 1430 A[11] + 1430 A[12]
   + 24310 A[13] >= -24310
 R8: 286 A[0] - 110 A[1] - 110 A[2] + 70 A[3] + 70 A[4] - 70 A[5] - 70 A[6]
   + 110 A[7] + 110 A[8] - 286 A[9] - 286 A[10] + 1430 A[11] + 1430 A[12]
   - 24310 A[13] >= -24310
 R9: - 176 A[1] + 44 A[2] + 84 A[3] - 56 A[4] - 56 A[5] + 84 A[6] + 44 A[7]
   - 176 A[8] + 572 A[10] - 572 A[11] - 3432 A[12] + 19448 A[13] >= -19448
 R10: - 208 A[0] - 32 A[1] + 100 A[2] - 28 A[3] - 56 A[4] + 56 A[5]
   + 28 A[6] - 100 A[7] + 32 A[8] + 208 A[9] - 364 A[10] - 364 A[11]
   + 3640 A[12] - 12376 A[13] >= -12376
 R11: - 156 A[0] + 84 A[1] + 16 A[2] - 56 A[3] + 28 A[4] + 28 A[5]
   - 56 A[6] + 16 A[7] + 84 A[8] - 156 A[9] + 728 A[11] - 2548 A[12]
   + 6188 A[13] >= -6188
 R12: - 12 A[0] + 60 A[1] - 40 A[2] + 28 A[4] - 28 A[5] + 40 A[7] - 60 A[8]
   + 12 A[9] + 168 A[10] - 560 A[11] + 1260 A[12] - 2380 A[13] >= -2380
 R13: 48 A[0] - 20 A[2] + 20 A[3] - 8 A[4] - 8 A[5] + 20 A[6] - 20 A[7]
   + 48 A[9] - 132 A[10] + 260 A[11] - 440 A[12] + 680 A[13] >= -680
 R14: 32 A[0] - 16 A[1] + 4 A[2] + 4 A[3] - 8 A[4] + 8 A[5] - 4 A[6]
   - 4 A[7] + 16 A[8] - 32 A[9] + 52 A[10] - 76 A[11] + 104 A[12]
   - 136 A[13] >= -136
 R15: 9 A[0] - 7 A[1] + 5 A[2] - 3 A[3] + A[4] + A[5] - 3 A[6] + 5 A[7]
   - 7 A[8] + 9 A[9] - 11 A[10] + 13 A[11] - 15 A[12] + 17 A[13] >= -17
 R16: A[0] - A[1] + A[2] - A[3] + A[4] - A[5] + A[6] - A[7] + A[8] - A[9]
   + A[10] - A[11] + A[12] - A[13] >= -1
 R17: A[0] + A[1] + A[2] + A[3] + A[4] + A[5] + A[6] + A[7] + A[8] + A[9]
   + A[10] + A[11] + A[12] + A[13] <= 2380
 R18: A[0] + A[1] + A[2] + A[3] + A[4] + A[5] + A[6] + A[7] + A[8] + A[9]
   + A[10] + A[11] + A[12] + A[13] <= 6188
 R19: 12584 A[0] + 12344 A[1] + 12148 A[2] + 12348 A[3] + 12432 A[4]
   + 12432 A[5] + 12348 A[6] + 12276 A[7] + 12344 A[8] + 12584 A[9]
   + 12740 A[10] + 12012 A[11] + 8736 A[12] >= 0
 R20: 19448 A[0] + 19272 A[1] + 19404 A[2] + 19404 A[3] + 19504 A[4]
   + 19392 A[5] + 19364 A[6] + 19492 A[7] + 19624 A[8] + 19448 A[9]
   + 18876 A[10] + 18876 A[11] + 22880 A[12] + 38896 A[13] >= 0
 R21: 24024 A[0] + 24200 A[1] + 24420 A[2] + 24380 A[3] + 24112 A[4]
   + 24240 A[5] + 24380 A[6] + 24420 A[7] + 24200 A[8] + 24024 A[9]
   + 24596 A[10] + 25740 A[11] + 22880 A[12] >= 0
 R22: 24024 A[0] + 24420 A[1] + 24420 A[2] + 24240 A[3] + 24240 A[4]
   + 24252 A[5] + 24380 A[6] + 24200 A[7] + 24200 A[8] + 24596 A[9]
   + 24596 A[10] + 22880 A[11] + 22880 A[12] + 48620 A[13] >= 0
 R23: 19448 A[0] + 19624 A[1] + 19404 A[2] + 19364 A[3] + 19504 A[4]
   + 19504 A[5] + 19236 A[6] + 19404 A[7] + 19624 A[8] + 19448 A[9]
   + 18876 A[10] + 20020 A[11] + 22880 A[12] >= 0
 R24: 12584 A[0] + 12408 A[1] + 12276 A[2] + 12404 A[3] + 12432 A[4]
   + 12320 A[5] + 12348 A[6] + 12348 A[7] + 12344 A[8] + 12168 A[9]
   + 12740 A[10] + 12740 A[11] + 8736 A[12] + 24752 A[13] >= 0
 R25: 6344 A[0] + 6104 A[1] + 6172 A[2] + 6244 A[3] + 6160 A[4] + 6160 A[5]
   + 6244 A[6] + 6172 A[7] + 5976 A[8] + 6344 A[9] + 6188 A[10]
   + 5460 A[11] + 8736 A[12] >= 0
 R26: 2392 A[0] + 2320 A[1] + 2420 A[2] + 2380 A[3] + 2352 A[4] + 2408 A[5]
   + 2380 A[6] + 2340 A[7] + 2440 A[8] + 2240 A[9] + 2212 A[10]
   + 2940 A[11] + 1120 A[12] + 4760 A[13] >= 0
 R27: 632 A[0] + 680 A[1] + 700 A[2] + 660 A[3] + 688 A[4] + 688 A[5]
   + 660 A[6] + 700 A[7] + 680 A[8] + 632 A[9] + 684 A[10] + 420 A[11]
   + 1120 A[12] >= 0
 R28: 104 A[0] + 152 A[1] + 132 A[2] + 132 A[3] + 144 A[4] + 128 A[5]
   + 140 A[6] + 140 A[7] + 120 A[8] + 168 A[9] + 84 A[10] + 84 A[11]
   + 32 A[12] + 272 A[13] >= 0
 R29: 8 A[0] + 24 A[1] + 12 A[2] + 20 A[3] + 16 A[4] + 16 A[5] + 20 A[6]
   + 12 A[7] + 24 A[8] + 8 A[9] + 28 A[10] + 4 A[11] - 96 A[12] >= 0
 R30: 2 A[1] + 2 A[3] + 2 A[5] + 2 A[7] + 2 A[9] + 2 A[11] - 126 A[13]
   >= 0
 R31: A[0] + A[1] + A[2] + A[3] + A[4] + A[5] + A[6] + A[7] + A[8] + A[9]
   + A[10] + A[11] + A[12] + A[13] >= 128
 R32: A[0] + A[1] + A[2] + A[3] + A[4] + A[5] + A[6] + A[7] + A[8] + A[9]
   + A[10] + A[11] + A[12] + A[13] <= 4096
Bounds
 A[0] <= 2380
 A[1] <= 6188
 A[2] <= 12376
 A[3] <= 19448
 A[4] <= 24310
 A[5] <= 24310
 A[6] <= 19448
 A[7] <= 12376
 A[8] <= 6188
 A[9] <= 2380
 A[10] <= 680
 A[11] <= 136
 A[12] <= 17
 A[13] <= 1
Generals
 A[0] A[1] A[2] A[3] A[4] A[5] A[6] A[7] A[8] A[9] A[10] A[11] A[12] A[13]
End
