outputs/models/Extended_LCD_ILP_2_17_4_7.mps
* Signature: 0x1c8267029a927e04
NAME Extended ILP
OBJSENSE MAX
ROWS
 N  OBJ
 E  R0      
 E  R1      
 E  R2      
 E  R3      
 E  R4      
 G  R5      
 G  R6      
 G  R7      
 G  R8      
 G  R9      
 G  R10     
 G  R11     
 G  R12     
 G  R13     
 G  R14     
 G  R15     
 G  R16     
 L  R17     
 L  R18     
 G  R19     
 G  R20     
 G  R21     
 G  R22     
 G  R23     
 G  R24     
 G  R25     
 G  R26     
 G  R27     
 G  R28     
 G  R29     
 G  R30     
 G  R31     
 L  R32     
COLUMNS
    MARKER    'MARKER'                 'INTORG'
    A[0]      OBJ       1
    A[0]      R0        9
    A[0]      R1        32
    A[0]      R2        48
    A[0]      R3        -12
    A[0]      R4        -156
    A[0]      R5        -208
    A[0]      R7        286
    A[0]      R8        286
    A[0]      R10       -208
    A[0]      R11       -156
    A[0]      R12       -12
    A[0]      R13       48
    A[0]      R14       32
    A[0]      R15       9
    A[0]      R16       1
    A[0]      R17       1
    A[0]      R18       1
    A[0]      R19       12584
    A[0]      R20       19448
    A[0]      R21       24024
    A[0]      R22       24024
    A[0]      R23       19448
    A[0]      R24       12584
    A[0]      R25       6344
    A[0]      R26       2392
    A[0]      R27       632
    A[0]      R28       104
    A[0]      R29       8
    A[0]      R31       1
    A[0]      R32       1
    A[1]      OBJ       1
    A[1]      R0        7
    A[1]      R1        16
    A[1]      R3        -60
    A[1]      R4        -84
    A[1]      R5        32
    A[1]      R6        176
    A[1]      R7        110
    A[1]      R8        -110
    A[1]      R9        -176
    A[1]      R10       -32
    A[1]      R11       84
    A[1]      R12       60
    A[1]      R14       -16
    A[1]      R15       -7
    A[1]      R16       -1
    A[1]      R17       1
    A[1]      R18       1
    A[1]      R19       12344
    A[1]      R20       19272
    A[1]      R21       24200
    A[1]      R22       24420
    A[1]      R23       19624
    A[1]      R24       12408
    A[1]      R25       6104
    A[1]      R26       2320
    A[1]      R27       680
    A[1]      R28       152
    A[1]      R29       24
    A[1]      R30       2
    A[1]      R31       1
    A[1]      R32       1
    A[2]      OBJ       1
    A[2]      R0        5
    A[2]      R1        4
    A[2]      R2        -20
    A[2]      R3        -40
    A[2]      R4        16
    A[2]      R5        100
    A[2]      R6        44
    A[2]      R7        -110
    A[2]      R8        -110
    A[2]      R9        44
    A[2]      R10       100
    A[2]      R11       16
    A[2]      R12       -40
    A[2]      R13       -20
    A[2]      R14       4
    A[2]      R15       5
    A[2]      R16       1
    A[2]      R17       1
    A[2]      R18       1
    A[2]      R19       12148
    A[2]      R20       19404
    A[2]      R21       24420
    A[2]      R22       24420
    A[2]      R23       19404
    A[2]      R24       12276
    A[2]      R25       6172
    A[2]      R26       2420
    A[2]      R27       700
    A[2]      R28       132
    A[2]      R29       12
    A[2]      R31       1
    A[2]      R32       1
    A[3]      OBJ       1
    A[3]      R0        3
    A[3]      R1        -4
    A[3]      R2        -20
    A[3]      R4        56
    A[3]      R5        28
    A[3]      R6        -84
    A[3]      R7        -70
    A[3]      R8        70
    A[3]      R9        84
    A[3]      R10       -28
    A[3]      R11       -56
    A[3]      R13       20
    A[3]      R14       4
    A[3]      R15       -3
    A[3]      R16       -1
    A[3]      R17       1
    A[3]      R18       1
    A[3]      R19       12348
    A[3]      R20       19404
    A[3]      R21       24380
    A[3]      R22       24240
    A[3]      R23       19364
    A[3]      R24       12404
    A[3]      R25       6244
    A[3]      R26       2380
    A[3]      R27       660
    A[3]      R28       132
    A[3]      R29       20
    A[3]      R30       2
    A[3]      R31       1
    A[3]      R32       1
    A[4]      OBJ       1
    A[4]      R0        1
    A[4]      R1        -8
    A[4]      R2        -8
    A[4]      R3        28
    A[4]      R4        28
    A[4]      R5        -56
    A[4]      R6        -56
    A[4]      R7        70
    A[4]      R8        70
    A[4]      R9        -56
    A[4]      R10       -56
    A[4]      R11       28
    A[4]      R12       28
    A[4]      R13       -8
    A[4]      R14       -8
    A[4]      R15       1
    A[4]      R16       1
    A[4]      R17       1
    A[4]      R18       1
    A[4]      R19       12432
    A[4]      R20       19504
    A[4]      R21       24112
    A[4]      R22       24240
    A[4]      R23       19504
    A[4]      R24       12432
    A[4]      R25       6160
    A[4]      R26       2352
    A[4]      R27       688
    A[4]      R28       144
    A[4]      R29       16
    A[4]      R31       1
    A[4]      R32       1
    A[5]      OBJ       1
    A[5]      R0        -1
    A[5]      R1        -8
    A[5]      R2        8
    A[5]      R3        28
    A[5]      R4        -28
    A[5]      R5        -56
    A[5]      R6        56
    A[5]      R7        70
    A[5]      R8        -70
    A[5]      R9        -56
    A[5]      R10       56
    A[5]      R11       28
    A[5]      R12       -28
    A[5]      R13       -8
    A[5]      R14       8
    A[5]      R15       1
    A[5]      R16       -1
    A[5]      R17       1
    A[5]      R18       1
    A[5]      R19       12432
    A[5]      R20       19392
    A[5]      R21       24240
    A[5]      R22       24252
    A[5]      R23       19504
    A[5]      R24       12320
    A[5]      R25       6160
    A[5]      R26       2408
    A[5]      R27       688
    A[5]      R28       128
    A[5]      R29       16
    A[5]      R30       2
    A[5]      R31       1
    A[5]      R32       1
    A[6]      OBJ       1
    A[6]      R0        -3
    A[6]      R1        -4
    A[6]      R2        20
    A[6]      R4        -56
    A[6]      R5        28
    A[6]      R6        84
    A[6]      R7        -70
    A[6]      R8        -70
    A[6]      R9        84
    A[6]      R10       28
    A[6]      R11       -56
    A[6]      R13       20
    A[6]      R14       -4
    A[6]      R15       -3
    A[6]      R16       1
    A[6]      R17       1
    A[6]      R18       1
    A[6]      R19       12348
    A[6]      R20       19364
    A[6]      R21       24380
    A[6]      R22       24380
    A[6]      R23       19236
    A[6]      R24       12348
    A[6]      R25       6244
    A[6]      R26       2380
    A[6]      R27       660
    A[6]      R28       140
    A[6]      R29       20
    A[6]      R31       1
    A[6]      R32       1
    A[7]      OBJ       1
    A[7]      R0        -5
    A[7]      R1        4
    A[7]      R2        20
    A[7]      R3        -40
    A[7]      R4        -16
    A[7]      R5        100
    A[7]      R6        -44
    A[7]      R7        -110
    A[7]      R8        110
    A[7]      R9        44
    A[7]      R10       -100
    A[7]      R11       16
    A[7]      R12       40
    A[7]      R13       -20
    A[7]      R14       -4
    A[7]      R15       5
    A[7]      R16       -1
    A[7]      R17       1
    A[7]      R18       1
    A[7]      R19       12276
    A[7]      R20       19492
    A[7]      R21       24420
    A[7]      R22       24200
    A[7]      R23       19404
    A[7]      R24       12348
    A[7]      R25       6172
    A[7]      R26       2340
    A[7]      R27       700
    A[7]      R28       140
    A[7]      R29       12
    A[7]      R30       2
    A[7]      R31       1
    A[7]      R32       1
    A[8]      OBJ       1
    A[8]      R0        -7
    A[8]      R1        16
    A[8]      R3        -60
    A[8]      R4        84
    A[8]      R5        32
    A[8]      R6        -176
    A[8]      R7        110
    A[8]      R8        110
    A[8]      R9        -176
    A[8]      R10       32
    A[8]      R11       84
    A[8]      R12       -60
    A[8]      R14       16
    A[8]      R15       -7
    A[8]      R16       1
    A[8]      R17       1
    A[8]      R18       1
    A[8]      R19       12344
    A[8]      R20       19624
    A[8]      R21       24200
    A[8]      R22       24200
    A[8]      R23       19624
    A[8]      R24       12344
    A[8]      R25       5976
    A[8]      R26       2440
    A[8]      R27       680
    A[8]      R28       120
    A[8]      R29       24
    A[8]      R31       1
    A[8]      R32       1
    A[9]      OBJ       1
    A[9]      R0        -9
    A[9]      R1        32
    A[9]      R2        -48
    A[9]      R3        -12
    A[9]      R4        156
    A[9]      R5        -208
    A[9]      R7        286
    A[9]      R8        -286
    A[9]      R10       208
    A[9]      R11       -156
    A[9]      R12       12
    A[9]      R13       48
    A[9]      R14       -32
    A[9]      R15       9
    A[9]      R16       -1
    A[9]      R17       1
    A[9]      R18       1
    A[9]      R19       12584
    A[9]      R20       19448
    A[9]      R21       24024
    A[9]      R22       24596
    A[9]      R23       19448
    A[9]      R24       12168
    A[9]      R25       6344
    A[9]      R26       2240
    A[9]      R27       632
    A[9]      R28       168
    A[9]      R29       8
    A[9]      R30       2
    A[9]      R31       1
    A[9]      R32       1
    A[10]     OBJ       1
    A[10]     R0        -11
    A[10]     R1        52
    A[10]     R2        -132
    A[10]     R3        168
    A[10]     R5        -364
    A[10]     R6        572
    A[10]     R7        -286
    A[10]     R8        -286
    A[10]     R9        572
    A[10]     R10       -364
    A[10]     R12       168
    A[10]     R13       -132
    A[10]     R14       52
    A[10]     R15       -11
    A[10]     R16       1
    A[10]     R17       1
    A[10]     R18       1
    A[10]     R19       12740
    A[10]     R20       18876
    A[10]     R21       24596
    A[10]     R22       24596
    A[10]     R23       18876
    A[10]     R24       12740
    A[10]     R25       6188
    A[10]     R26       2212
    A[10]     R27       684
    A[10]     R28       84
    A[10]     R29       28
    A[10]     R31       1
    A[10]     R32       1
    A[11]     OBJ       1
    A[11]     R0        -13
    A[11]     R1        76
    A[11]     R2        -260
    A[11]     R3        560
    A[11]     R4        -728
    A[11]     R5        364
    A[11]     R6        572
    A[11]     R7        -1430
    A[11]     R8        1430
    A[11]     R9        -572
    A[11]     R10       -364
    A[11]     R11       728
    A[11]     R12       -560
    A[11]     R13       260
    A[11]     R14       -76
    A[11]     R15       13
    A[11]     R16       -1
    A[11]     R17       1
    A[11]     R18       1
    A[11]     R19       12012
    A[11]     R20       18876
    A[11]     R21       25740
    A[11]     R22       22880
    A[11]     R23       20020
    A[11]     R24       12740
    A[11]     R25       5460
    A[11]     R26       2940
    A[11]     R27       420
    A[11]     R28       84
    A[11]     R29       4
    A[11]     R30       2
    A[11]     R31       1
    A[11]     R32       1
    A[12]     OBJ       1
    A[12]     R0        -15
    A[12]     R1        104
    A[12]     R2        -440
    A[12]     R3        1260
    A[12]     R4        -2548
    A[12]     R5        3640
    A[12]     R6        -3432
    A[12]     R7        1430
    A[12]     R8        1430
    A[12]     R9        -3432
    A[12]     R10       3640
    A[12]     R11       -2548
    A[12]     R12       1260
    A[12]     R13       -440
    A[12]     R14       104
    A[12]     R15       -15
    A[12]     R16       1
    A[12]     R17       1
    A[12]     R18       1
    A[12]     R19       8736
    A[12]     R20       22880
    A[12]     R21       22880
    A[12]     R22       22880
    A[12]     R23       22880
    A[12]     R24       8736
    A[12]     R25       8736
    A[12]     R26       1120
    A[12]     R27       1120
    A[12]     R28       32
    A[12]     R29       -96
    A[12]     R31       1
    A[12]     R32       1
    A[13]     OBJ       1
    A[13]     R0        -17
    A[13]     R1        136
    A[13]     R2        -680
    A[13]     R3        2380
    A[13]     R4        -6188
    A[13]     R5        12376
    A[13]     R6        -19448
    A[13]     R7        24310
    A[13]     R8        -24310
    A[13]     R9        19448
    A[13]     R10       -12376
    A[13]     R11       6188
    A[13]     R12       -2380
    A[13]     R13       680
    A[13]     R14       -136
    A[13]     R15       17
    A[13]     R16       -1
    A[13]     R17       1
    A[13]     R18       1
    A[13]     R20       38896
    A[13]     R22       48620
    A[13]     R24       24752
    A[13]     R26       4760
    A[13]     R28       272
    A[13]     R30       -126
    A[13]     R31       1
    A[13]     R32       1
    MARKER    'MARKER'                 'INTEND'
RHS
    RHS1      R5        -12376
    RHS1      R6        -19448
    RHS1      R7        -24310
    RHS1      R8        -24310
    RHS1      R9        -19448
    RHS1      R10       -12376
    RHS1      R11       -6188
    RHS1      R12       -2380
    RHS1      R13       -680
    RHS1      R14       -136
    RHS1      R15       -17
    RHS1      R16       -1
    RHS1      R17       2380
    RHS1      R18       6188
    RHS1      R31       128
    RHS1      R32       4096
BOUNDS
 UP BND1      A[0]      2380
 UP BND1      A[1]      6188
 UP BND1      A[2]      12376
 UP BND1      A[3]      19448
 UP BND1      A[4]      24310
 UP BND1      A[5]      24310
 UP BND1      A[6]      19448
 UP BND1      A[7]      12376
 UP BND1      A[8]      6188
 UP BND1      A[9]      2380
 UP BND1      A[10]     680
 UP BND1      A[11]     136
 UP BND1      A[12]     17
 UP BND1      A[13]     1
ENDATA
